
GUB cover cuts applied:  1
Clique cuts applied:  2
Cover cuts applied:  6
Implied bound cuts applied:  6
Flow cuts applied:  1
Mixed integer rounding cuts applied:  13
Zero-half cuts applied:  3
Multi commodity flow cuts applied:  4
Gomory fractional cuts applied:  1

Root node processing (before b&c):
  Real time             =    0.05 sec. (35.32 ticks)
Parallel b&c, 4 threads:
  Real time             =    0.00 sec. (0.00 ticks)
  Sync time (average)   =    0.00 sec.
  Wait time (average)   =    0.00 sec.
                          ------------
Total (root+branch&cut) =    0.05 sec. (35.32 ticks)
Version identifier: 12.10.0.0 | 2019-11-26 | 843d4de
CPXPARAM_MIP_Interval                            10
CPXPARAM_MIP_Tolerances_AbsMIPGap                0.98999999999999999
Tried aggregator 2 times.
MIP Presolve eliminated 2432 rows and 1156 columns.
MIP Presolve added 4 rows and 0 columns.
MIP Presolve modified 112 coefficients.
Aggregator did 11 substitutions.
Reduced MIP has 1161 rows, 162 columns, and 2559 nonzeros.
Reduced MIP has 128 binaries, 34 generals, 0 SOSs, and 0 indicators.
Presolve time = 0.00 sec. (4.37 ticks)
Found incumbent of value 4.000000 after 0.01 sec. (6.89 ticks)
Probing fixed 0 vars, tightened 6 bounds.
Probing time = 0.00 sec. (0.50 ticks)
Cover probing fixed 0 vars, tightened 23 bounds.
Tried aggregator 1 time.
Detecting symmetries...
MIP Presolve eliminated 861 rows and 0 columns.
MIP Presolve modified 21 coefficients.
Reduced MIP has 300 rows, 162 columns, and 837 nonzeros.
Reduced MIP has 128 binaries, 34 generals, 0 SOSs, and 0 indicators.
Presolve time = 0.00 sec. (1.03 ticks)
Probing fixed 0 vars, tightened 7 bounds.
Probing time = 0.00 sec. (0.17 ticks)
Cover probing fixed 0 vars, tightened 19 bounds.
Clique table members: 210.
MIP emphasis: balance optimality and feasibility.
MIP search method: dynamic search.
Parallel mode: deterministic, using up to 4 threads.
Root relaxation solution time = 0.00 sec. (0.94 ticks)

        Nodes                                         Cuts/
   Node  Left     Objective  IInf  Best Integer    Best Bound    ItCnt     Gap

*     0+    0                            4.0000       35.0000           775.00%
*     0+    0                           16.0000       35.0000           118.75%
      0     0       22.3333    81       16.0000       22.3333      115   39.58%
      0     0       22.0000    81       16.0000      Cuts: 57      205   37.50%
      0     0       22.0000    81       16.0000     Cuts: 119      290   37.50%
      0     0       22.0000    81       16.0000      Cuts: 10      352   37.50%
      0     0       22.0000    81       16.0000      Cuts: 74      429   37.50%
*     0+    0                           20.0000       22.0000            10.00%
Detecting symmetries...
      0     2       22.0000    61       20.0000       22.0000      429   10.00%
Elapsed time = 0.09 sec. (42.86 ticks, tree = 0.02 MB, solutions = 3)
     10     5       21.9352    91       20.0000       22.0000      525   10.00%
     20    12       21.8333    81       20.0000       22.0000      693   10.00%
     30    25       21.5000    37       20.0000       22.0000     1049   10.00%
     40    23       21.6667    36       20.0000       22.0000     1192   10.00%
     50    29    infeasible             20.0000       22.0000     1554   10.00%
     60    34       21.6154    79       20.0000       22.0000     1817   10.00%
     70    36       21.3333    70       20.0000       22.0000     1902   10.00%
     80    38        cutoff             20.0000       22.0000     2703   10.00%
     90    41       21.3333    55       20.0000       22.0000     2951   10.00%
    100    44        cutoff             20.0000       22.0000     3442   10.00%
Elapsed time = 0.12 sec. (59.87 ticks, tree = 0.02 MB, solutions = 3)
    110    32       21.9565    80       20.0000       22.0000     2661   10.00%
    120    47       21.1667    86       20.0000       22.0000     3549   10.00%
    130    52        cutoff             20.0000       22.0000     4416   10.00%
    140    54       21.1667    17       20.0000       22.0000     4181   10.00%
    150    45        cutoff             20.0000       22.0000     3838   10.00%
    160    62       21.6667    39       20.0000       22.0000     5039   10.00%
    170    58        cutoff             20.0000       21.9583     4771    9.79%
    180    63        cutoff             20.0000       21.9583     5163    9.79%
    190    64        cutoff             20.0000       21.9167     5249    9.58%
    200    66       21.7639    55       20.0000       21.9167     5616    9.58%
Elapsed time = 0.13 sec. (71.98 ticks, tree = 0.06 MB, solutions = 3)
    210    68        cutoff             20.0000       21.9167     5714    9.58%
    220    67        cutoff             20.0000       21.8704     5849    9.35%
    230    67        cutoff             20.0000       21.8704     5879    9.35%
    240    71        cutoff             20.0000       21.8333     6526    9.17%
    250    69       21.3472    56       20.0000       21.8333     5975    9.17%
    260    72       21.3333    38       20.0000       21.8333     6606    9.17%
    270    67        cutoff             20.0000       21.8333     6082    9.17%
    280    87       21.5556    36       20.0000       21.8333     7019    9.17%
    290    85       21.6667    39       20.0000       21.7778     7880    8.89%
    300    82       21.2500    66       20.0000       21.7778     7148    8.89%
Elapsed time = 0.14 sec. (82.13 ticks, tree = 0.05 MB, solutions = 3)
    310    83       21.4667    59       20.0000       21.7778     7193    8.89%
    320    87       21.3846    88       20.0000       21.7778     8054    8.89%
    330    84       21.1000    57       20.0000       21.7778     7322    8.89%
    340    91       21.0000    50       20.0000       21.7574     8141    8.79%
    350    98       21.0000    33       20.0000       21.7574     8477    8.79%
    360    96       21.1111    37       20.0000       21.7574     8533    8.79%
    370    91       21.0000    17       20.0000       21.7574     8261    8.79%
    380    90       21.5000    38       20.0000       21.7500     8301    8.75%
    390    97       21.5833    42       20.0000       21.7500     8614    8.75%
    400   100       21.1667    57       20.0000       21.7500     8679    8.75%
Elapsed time = 0.16 sec. (92.78 ticks, tree = 0.04 MB, solutions = 3)
    410   117       21.1000    57       20.0000       21.6667     9925    8.33%
    420   115        cutoff             20.0000       21.6667     9975    8.33%
    430   112       21.3333    39       20.0000       21.6667    10150    8.33%
    440   117        cutoff             20.0000       21.6667    10073    8.33%
    450   111       21.2265    70       20.0000       21.6667    10254    8.33%
    460   111        cutoff             20.0000       21.6667    10935    8.33%
    470   107        cutoff             20.0000       21.6667    10318    8.33%
    480   111       21.3333    37       20.0000       21.6667    10973    8.33%
    490   114       21.0000    32       20.0000       21.6667    10519    8.33%
    500   114        cutoff             20.0000       21.6667    10357    8.33%
Elapsed time = 0.17 sec. (103.97 ticks, tree = 0.06 MB, solutions = 3)
    510   111        cutoff             20.0000       21.6667    11092    8.33%
    520   108        cutoff             20.0000       21.6667    10420    8.33%
    530   108       21.3333    39       20.0000       21.6154    11186    8.08%
    540    96       21.1667    63       20.0000       21.6154    11973    8.08%
    550   111    infeasible             20.0000       21.6154    10913    8.08%
    560    91        cutoff             20.0000       21.6154    12312    8.08%
    570    87    infeasible             20.0000       21.6154    12350    8.08%
    580    84        cutoff             20.0000       21.6154    12530    8.08%
    590   109        cutoff             20.0000       21.6154    11011    8.08%
    600    78       21.0000    49       20.0000       21.6154    12742    8.08%
Elapsed time = 0.18 sec. (114.06 ticks, tree = 0.03 MB, solutions = 3)
    610    68        cutoff             20.0000       21.3704    13831    6.85%
    620    62        cutoff             20.0000       21.3704    13871    6.85%
    630    54        cutoff             20.0000       21.3500    14080    6.75%
    640    57       21.0000    40       20.0000       21.3333    14042    6.67%
    650    33        cutoff             20.0000       21.2222    14522    6.11%
    660    41       21.0000    29       20.0000       21.1818    14490    5.91%
    670    42        cutoff             20.0000       21.1667    14510    5.83%
    680    37        cutoff             20.0000       21.1667    14572    5.83%
the number of Nodes = 684
